# Solution for model r5_t27_m0_9 Batch Number: 2
# Finished Task: 27 / 27
# Makespan: 479.0, Total Distance: 586.0, Total Time: 122.4479
# R O S F Batch
0 0 6 0.0 0.0 -1
1 1 25 0.0 0.0 -1
2 2 19 0.0 0.0 -1
3 3 28 0.0 0.0 -1
4 4 8 0.0 0.0 -1
5 0 -1 422.0 446.0 1
6 0 23 35.0 68.0 0
7 2 30 335.0 369.0 1
8 4 15 52.0 74.0 0
9 2 7 216.0 244.0 0
10 1 17 138.0 176.0 0
11 1 31 310.0 335.0 1
12 3 13 269.0 297.0 1
13 3 -1 364.0 392.0 1
14 4 26 346.0 380.0 1
15 4 22 185.0 207.0 0
16 3 12 181.0 215.0 0
17 1 20 200.0 233.0 0
18 0 5 335.0 373.0 1
19 2 9 149.0 185.0 0
20 1 11 272.0 293.0 1
21 4 -1 446.0 473.0 1
22 4 14 297.0 324.0 1
23 0 18 180.0 216.0 0
24 2 -1 453.0 473.0 1
25 1 10 68.0 94.0 0
26 4 21 401.0 432.0 1
27 1 -1 446.0 479.0 1
28 3 16 152.0 181.0 0
29 1 27 385.0 411.0 1
30 2 24 386.0 412.0 1
31 1 29 348.0 372.0 1
